commons/LK_FILES/TIC07-10-10-3.tsp
NAME: TIC07-10-10-3
TYPE: TSP
COMMENT: TSP
DIMENSION: 6
EDGE_WEIGHT_TYPE: EXPLICIT
EDGE_WEIGHT_FORMAT: FULL_MATRIX
EDGE_WEIGHT_SECTION
0 159 124 368 284 129 
159 0 98 312 130 87 
124 98 0 331 133 177 
368 312 331 0 335 448 
284 130 133 335 0 80 
129 87 177 448 80 0 
EOF
