commons/LK_FILES/TIC07-10-10-3.tour
NAME : TIC07-10-10-3.1078.tour
COMMENT : Length = 1078
COMMENT : Found by LKH [Keld Helsgaun] Thu Dec 15 16:56:35 2016
TYPE : TOUR
DIMENSION : 6
TOUR_SECTION
1
3
2
4
5
6
-1
EOF
